5416 2211  0
5508 2329  1
5499 2333  1
5535 2355  1
5560 2323  1
5486 2325  3
5532 2311  4
5467 2307  4
5461 2297  5
5472 2291  6
5602 2444  7
5555 2397  8
5568 2403  10
5571 2398  10
5423 2259  11
5442 2284  12
5513 2344  13
5476 2318  14
5404 2223  15
5544 2384  16
5546 2379  16
5542 2379  17
5497 2333  18
5404 2223  19
5433 2275  19
5506 2325  20
5392 2233  21
5532 2341  22
5540 2382  23
5534 2368  24
5590 2432  25
5536 2347  26
5522 2356  26
5303 2130  27
5550 2392  28
5519 2345  29
5442 2276  30
5499 2341  31
5446 2288  32
5517 2359  33
5292 2127  34
5513 2343  35
5510 2344  35
5523 2323  35
5538 2374  36
5456 2290  37
5538 2379  39
5455 2257  40
5425 2260  40
5434 2258  40
5471 2313  41
5501 2303  41
5382 2219  42
5482 2322  43
5417 2256  44
5402 2242  45
5339 2148  46
5484 2326  47
5533 2375  48
5572 2408  49
